500
    1   204   204
    2   446   446
    3   448   448
    4   319   319
    5   154   154
    6   420   420
    7   363   363
    8   300   300
    9   428   428
   10   406   406
   11   294   294
   12   441   441
   13   301   301
   14    70    70
   15   108   108
   16    60    60
   17   269   269
   18   295   295
   19    70    70
   20    83    83
   21     8     8
   22    95    95
   23   183   183
   24   195   195
   25   196   196
   26   463   463
   27   116   116
   28   242   242
   29    61    61
   30   171   171
   31   301   301
   32   352   352
   33   481   481
   34   358   358
   35   396   396
   36   182   182
   37   497   497
   38   387   387
   39   458   458
   40   106   106
   41   237   237
   42   470   470
   43   344   344
   44   455   455
   45   156   156
   46    52    52
   47   331   331
   48   264   264
   49   465   465
   50   493   493
   51   132   132
   52   363   363
   53    70    70
   54    88    88
   55   136   136
   56   220   220
   57   310   310
   58   482   482
   59   171   171
   60   261   261
   61   398   398
   62   293   293
   63   300   300
   64   296   296
   65   240   240
   66   372   372
   67   117   117
   68   347   347
   69   244   244
   70   268   268
   71   109   109
   72   285   285
   73   448   448
   74   241   241
   75    53    53
   76   187   187
   77   160   160
   78   339   339
   79    59    59
   80   408   408
   81   451   451
   82   320   320
   83   402   402
   84   442   442
   85   230   230
   86    18    18
   87   134   134
   88   127   127
   89   231   231
   90    23    23
   91    47    47
   92   375   375
   93   358   358
   94    13    13
   95    26    26
   96     1     1
   97   159   159
   98    93    93
   99   168   168
  100   186   186
  101     7     7
  102   235   235
  103   152   152
  104   239   239
  105   289   289
  106   251   251
  107   464   464
  108   129   129
  109    81    81
  110   232   232
  111    88    88
  112    18    18
  113   409   409
  114    51    51
  115    31    31
  116   492   492
  117   472   472
  118   212   212
  119    54    54
  120   487   487
  121   209   209
  122    48    48
  123    87    87
  124   454   454
  125   180   180
  126   166   166
  127   303   303
  128   398   398
  129   380   380
  130    99    99
  131   340   340
  132   153   153
  133   465   465
  134   261   261
  135   115   115
  136   470   470
  137   220   220
  138   253   253
  139   270   270
  140   438   438
  141   222   222
  142   317   317
  143   378   378
  144   455   455
  145   406   406
  146   181   181
  147   303   303
  148   154   154
  149   392   392
  150   107   107
  151    57    57
  152    18    18
  153   115   115
  154     2     2
  155    51    51
  156   265   265
  157   337   337
  158    20    20
  159   183   183
  160   368   368
  161   366   366
  162     3     3
  163   122   122
  164   318   318
  165    99    99
  166   406   406
  167   422   422
  168   254   254
  169   226   226
  170    17    17
  171    38    38
  172   177   177
  173   284   284
  174   302   302
  175   140   140
  176   459   459
  177   130   130
  178   284   284
  179   275   275
  180    71    71
  181   497   497
  182   246   246
  183   489   489
  184     2     2
  185   477   477
  186   186   186
  187    72    72
  188   273   273
  189   200   200
  190   272   272
  191    57    57
  192   387   387
  193   117   117
  194   101   101
  195   353   353
  196   104   104
  197   264   264
  198    41    41
  199   128   128
  200   465   465
  201   421   421
  202   301   301
  203   472   472
  204   254   254
  205   398   398
  206   403   403
  207   388   388
  208   166   166
  209   141   141
  210   115   115
  211   134   134
  212   115   115
  213   115   115
  214    74    74
  215   455   455
  216   401   401
  217    35    35
  218     2     2
  219   237   237
  220    57    57
  221   395   395
  222   458   458
  223   163   163
  224   254   254
  225   169   169
  226     2     2
  227   309   309
  228   412   412
  229   377   377
  230   370   370
  231    67    67
  232   321   321
  233    43    43
  234    35    35
  235    65    65
  236    77    77
  237   261   261
  238    70    70
  239   429   429
  240   135   135
  241    64    64
  242   126   126
  243   417   417
  244     7     7
  245   232   232
  246   490   490
  247    39    39
  248    87    87
  249    53    53
  250   348   348
  251   351   351
  252   161   161
  253    24    24
  254   289   289
  255   460   460
  256   322   322
  257    91    91
  258   312   312
  259    55    55
  260   213   213
  261   406   406
  262    35    35
  263   465   465
  264   487   487
  265    47    47
  266   368   368
  267    20    20
  268   291   291
  269   293   293
  270   190   190
  271   302   302
  272   308   308
  273   149   149
  274   321   321
  275   203   203
  276   490   490
  277   466   466
  278   311   311
  279   340   340
  280   210   210
  281   283   283
  282   278   278
  283   301   301
  284   489   489
  285   211   211
  286   126   126
  287    51    51
  288   360   360
  289   153   153
  290   192   192
  291   130   130
  292   263   263
  293   470   470
  294   269   269
  295    31    31
  296   463   463
  297   145   145
  298   157   157
  299   330   330
  300   491   491
  301   393   393
  302   301   301
  303   241   241
  304   307   307
  305   262   262
  306   480   480
  307   464   464
  308   480   480
  309   410   410
  310   437   437
  311   204   204
  312   324   324
  313   390   390
  314   318   318
  315   271   271
  316   277   277
  317    38    38
  318   280   280
  319   113   113
  320   321   321
  321   465   465
  322    23    23
  323   175   175
  324   142   142
  325   230   230
  326   186   186
  327   366   366
  328   321   321
  329   285   285
  330   453   453
  331   474   474
  332   113   113
  333   375   375
  334   179   179
  335   252   252
  336   116   116
  337   254   254
  338    58    58
  339   393   393
  340   361   361
  341   235   235
  342   311   311
  343   222   222
  344    98    98
  345   397   397
  346   230   230
  347    62    62
  348   226   226
  349   471   471
  350   271   271
  351    27    27
  352   352   352
  353   166   166
  354   139   139
  355    17    17
  356   206   206
  357   366   366
  358   278   278
  359   188   188
  360   165   165
  361    87    87
  362   275   275
  363   161   161
  364   414   414
  365    44    44
  366    21    21
  367   284   284
  368    29    29
  369   465   465
  370   125   125
  371    85    85
  372    50    50
  373   474   474
  374   349   349
  375   281   281
  376   112   112
  377   372   372
  378   304   304
  379    29    29
  380   355   355
  381   102   102
  382   157   157
  383   331   331
  384   192   192
  385   196   196
  386   370   370
  387   104   104
  388   276   276
  389   417   417
  390   132   132
  391    78    78
  392   414   414
  393   224   224
  394   141   141
  395   190   190
  396   360   360
  397   263   263
  398   315   315
  399   309   309
  400   300   300
  401   335   335
  402   156   156
  403   353   353
  404   262   262
  405   255   255
  406    68    68
  407   483   483
  408   194   194
  409   431   431
  410   486   486
  411   117   117
  412   317   317
  413   436   436
  414   491   491
  415    90    90
  416   368   368
  417    71    71
  418   454   454
  419    49    49
  420   383   383
  421   420   420
  422   113   113
  423   348   348
  424   201   201
  425    31    31
  426   485   485
  427    81    81
  428   209   209
  429   390   390
  430   224   224
  431   283   283
  432   151   151
  433   216   216
  434   127   127
  435   188   188
  436   141   141
  437   173   173
  438   420   420
  439    42    42
  440   443   443
  441   110   110
  442   182   182
  443   489   489
  444   431   431
  445   461   461
  446   388   388
  447   172   172
  448    37    37
  449    28    28
  450   413   413
  451   276   276
  452    52    52
  453    15    15
  454   420   420
  455   277   277
  456   370   370
  457   343   343
  458   381   381
  459   103   103
  460   125   125
  461    77    77
  462   308   308
  463   342   342
  464    83    83
  465   149   149
  466   318   318
  467   354   354
  468   204   204
  469   213   213
  470   124   124
  471   436   436
  472   237   237
  473   221   221
  474    11    11
  475    49    49
  476    85    85
  477   293   293
  478    58    58
  479   141   141
  480    15    15
  481   173   173
  482   389   389
  483   315   315
  484   137   137
  485   497   497
  486   242   242
  487   371   371
  488   364   364
  489   398   398
  490   388   388
  491   155   155
  492   146   146
  493   138   138
  494   348   348
  495   114   114
  496    15    15
  497   112   112
  498   153   153
  499    96    96
  500   382   382
40613
